data/lp_files/pEFS/85_2.lp
\ Model foo
\ LP format - for model browsing. Use MPS format to capture full model detail.
Minimize
  z
Subject To
 allocateEach[1]: x[1,1] + x[2,1] + x[3,1] + x[4,1] + x[5,1] = 1
 allocateEach[2]: x[1,2] + x[2,2] + x[3,2] + x[4,2] + x[5,2] = 1
 allocateEach[3]: x[1,3] + x[2,3] + x[3,3] + x[4,3] + x[5,3] = 1
 allocateEach[4]: x[1,4] + x[2,4] + x[3,4] + x[4,4] + x[5,4] = 1
 allocateEach[5]: x[1,5] + x[2,5] + x[3,5] + x[4,5] + x[5,5] = 1
 allocateAllCash: cashProportion[1] + cashProportion[2] + cashProportion[3]
   + cashProportion[4] + cashProportion[5] = 1
 findWorstP[1,2]: z + 0.0516457788183446 cashProportion[1]
   - 0.0516457788183446 cashProportion[2] + 0.3241977689023551 x[1,1]
   + 0.0528852775099849 x[1,2] + 0.2990979203966396 x[1,3]
   + 0.2548202726897122 x[1,4] + 0.0173529816829638 x[1,5]
   - 0.3241977689023551 x[2,1] - 0.0528852775099849 x[2,2]
   - 0.2990979203966396 x[2,3] - 0.2548202726897122 x[2,4]
   - 0.0173529816829638 x[2,5] >= 0
 findWorstP[1,3]: z + 0.0516457788183446 cashProportion[1]
   - 0.0516457788183446 cashProportion[3] + 0.3241977689023551 x[1,1]
   + 0.0528852775099849 x[1,2] + 0.2990979203966396 x[1,3]
   + 0.2548202726897122 x[1,4] + 0.0173529816829638 x[1,5]
   - 0.3241977689023551 x[3,1] - 0.0528852775099849 x[3,2]
   - 0.2990979203966396 x[3,3] - 0.2548202726897122 x[3,4]
   - 0.0173529816829638 x[3,5] >= 0
 findWorstP[1,4]: z + 0.0516457788183446 cashProportion[1]
   - 0.0516457788183446 cashProportion[4] + 0.3241977689023551 x[1,1]
   + 0.0528852775099849 x[1,2] + 0.2990979203966396 x[1,3]
   + 0.2548202726897122 x[1,4] + 0.0173529816829638 x[1,5]
   - 0.3241977689023551 x[4,1] - 0.0528852775099849 x[4,2]
   - 0.2990979203966396 x[4,3] - 0.2548202726897122 x[4,4]
   - 0.0173529816829638 x[4,5] >= 0
 findWorstP[1,5]: z + 0.0516457788183446 cashProportion[1]
   - 0.0516457788183446 cashProportion[5] + 0.3241977689023551 x[1,1]
   + 0.0528852775099849 x[1,2] + 0.2990979203966396 x[1,3]
   + 0.2548202726897122 x[1,4] + 0.0173529816829638 x[1,5]
   - 0.3241977689023551 x[5,1] - 0.0528852775099849 x[5,2]
   - 0.2990979203966396 x[5,3] - 0.2548202726897122 x[5,4]
   - 0.0173529816829638 x[5,5] >= 0
 findWorstP[2,1]: z - 0.05868085439324 cashProportion[1]
   + 0.05868085439324 cashProportion[2] - 0.0365777325717862 x[1,1]
   - 0.213089742586652 x[1,2] - 0.3168766137234958 x[1,3]
   - 0.1968547062045223 x[1,4] - 0.1779203505203036 x[1,5]
   + 0.0365777325717862 x[2,1] + 0.213089742586652 x[2,2]
   + 0.3168766137234958 x[2,3] + 0.1968547062045223 x[2,4]
   + 0.1779203505203036 x[2,5] >= 0
 findWorstP[2,3]: z + 0.05868085439324 cashProportion[2]
   - 0.05868085439324 cashProportion[3] + 0.0365777325717862 x[2,1]
   + 0.213089742586652 x[2,2] + 0.3168766137234958 x[2,3]
   + 0.1968547062045223 x[2,4] + 0.1779203505203036 x[2,5]
   - 0.0365777325717862 x[3,1] - 0.213089742586652 x[3,2]
   - 0.3168766137234958 x[3,3] - 0.1968547062045223 x[3,4]
   - 0.1779203505203036 x[3,5] >= 0
 findWorstP[2,4]: z + 0.05868085439324 cashProportion[2]
   - 0.05868085439324 cashProportion[4] + 0.0365777325717862 x[2,1]
   + 0.213089742586652 x[2,2] + 0.3168766137234958 x[2,3]
   + 0.1968547062045223 x[2,4] + 0.1779203505203036 x[2,5]
   - 0.0365777325717862 x[4,1] - 0.213089742586652 x[4,2]
   - 0.3168766137234958 x[4,3] - 0.1968547062045223 x[4,4]
   - 0.1779203505203036 x[4,5] >= 0
 findWorstP[2,5]: z + 0.05868085439324 cashProportion[2]
   - 0.05868085439324 cashProportion[5] + 0.0365777325717862 x[2,1]
   + 0.213089742586652 x[2,2] + 0.3168766137234958 x[2,3]
   + 0.1968547062045223 x[2,4] + 0.1779203505203036 x[2,5]
   - 0.0365777325717862 x[5,1] - 0.213089742586652 x[5,2]
   - 0.3168766137234958 x[5,3] - 0.1968547062045223 x[5,4]
   - 0.1779203505203036 x[5,5] >= 0
 findWorstP[3,1]: z - 0.0454600557643351 cashProportion[1]
   + 0.0454600557643351 cashProportion[3] - 0.2225118196144987 x[1,1]
   - 0.2646684446599588 x[1,2] - 0.1779609649654504 x[1,3]
   - 0.0698872590617045 x[1,4] - 0.2195114559340526 x[1,5]
   + 0.2225118196144987 x[3,1] + 0.2646684446599588 x[3,2]
   + 0.1779609649654504 x[3,3] + 0.0698872590617045 x[3,4]
   + 0.2195114559340526 x[3,5] >= 0
 findWorstP[3,2]: z - 0.0454600557643351 cashProportion[2]
   + 0.0454600557643351 cashProportion[3] - 0.2225118196144987 x[2,1]
   - 0.2646684446599588 x[2,2] - 0.1779609649654504 x[2,3]
   - 0.0698872590617045 x[2,4] - 0.2195114559340526 x[2,5]
   + 0.2225118196144987 x[3,1] + 0.2646684446599588 x[3,2]
   + 0.1779609649654504 x[3,3] + 0.0698872590617045 x[3,4]
   + 0.2195114559340526 x[3,5] >= 0
 findWorstP[3,4]: z + 0.0454600557643351 cashProportion[3]
   - 0.0454600557643351 cashProportion[4] + 0.2225118196144987 x[3,1]
   + 0.2646684446599588 x[3,2] + 0.1779609649654504 x[3,3]
   + 0.0698872590617045 x[3,4] + 0.2195114559340526 x[3,5]
   - 0.2225118196144987 x[4,1] - 0.2646684446599588 x[4,2]
   - 0.1779609649654504 x[4,3] - 0.0698872590617045 x[4,4]
   - 0.2195114559340526 x[4,5] >= 0
 findWorstP[3,5]: z + 0.0454600557643351 cashProportion[3]
   - 0.0454600557643351 cashProportion[5] + 0.2225118196144987 x[3,1]
   + 0.2646684446599588 x[3,2] + 0.1779609649654504 x[3,3]
   + 0.0698872590617045 x[3,4] + 0.2195114559340526 x[3,5]
   - 0.2225118196144987 x[5,1] - 0.2646684446599588 x[5,2]
   - 0.1779609649654504 x[5,3] - 0.0698872590617045 x[5,4]
   - 0.2195114559340526 x[5,5] >= 0
 findWorstP[4,1]: z - 0.040794125645907 cashProportion[1]
   + 0.040794125645907 cashProportion[4] - 0.2231438672831113 x[1,1]
   - 0.2663856404677727 x[1,2] - 0.232880065270601 x[1,3]
   - 0.0896926842534675 x[1,4] - 0.1471036170791406 x[1,5]
   + 0.2231438672831113 x[4,1] + 0.2663856404677727 x[4,2]
   + 0.232880065270601 x[4,3] + 0.0896926842534675 x[4,4]
   + 0.1471036170791406 x[4,5] >= 0
 findWorstP[4,2]: z - 0.040794125645907 cashProportion[2]
   + 0.040794125645907 cashProportion[4] - 0.2231438672831113 x[2,1]
   - 0.2663856404677727 x[2,2] - 0.232880065270601 x[2,3]
   - 0.0896926842534675 x[2,4] - 0.1471036170791406 x[2,5]
   + 0.2231438672831113 x[4,1] + 0.2663856404677727 x[4,2]
   + 0.232880065270601 x[4,3] + 0.0896926842534675 x[4,4]
   + 0.1471036170791406 x[4,5] >= 0
 findWorstP[4,3]: z - 0.040794125645907 cashProportion[3]
   + 0.040794125645907 cashProportion[4] - 0.2231438672831113 x[3,1]
   - 0.2663856404677727 x[3,2] - 0.232880065270601 x[3,3]
   - 0.0896926842534675 x[3,4] - 0.1471036170791406 x[3,5]
   + 0.2231438672831113 x[4,1] + 0.2663856404677727 x[4,2]
   + 0.232880065270601 x[4,3] + 0.0896926842534675 x[4,4]
   + 0.1471036170791406 x[4,5] >= 0
 findWorstP[4,5]: z + 0.040794125645907 cashProportion[4]
   - 0.040794125645907 cashProportion[5] + 0.2231438672831113 x[4,1]
   + 0.2663856404677727 x[4,2] + 0.232880065270601 x[4,3]
   + 0.0896926842534675 x[4,4] + 0.1471036170791406 x[4,5]
   - 0.2231438672831113 x[5,1] - 0.2663856404677727 x[5,2]
   - 0.232880065270601 x[5,3] - 0.0896926842534675 x[5,4]
   - 0.1471036170791406 x[5,5] >= 0
 findWorstP[5,1]: z - 0.0392341494036409 cashProportion[1]
   + 0.0392341494036409 cashProportion[5] - 0.2367650136011718 x[1,1]
   - 0.0817378112575853 x[1,2] - 0.2324231010671689 x[1,3]
   - 0.2346725256329777 x[1,4] - 0.1751673990374556 x[1,5]
   + 0.2367650136011718 x[5,1] + 0.0817378112575853 x[5,2]
   + 0.2324231010671689 x[5,3] + 0.2346725256329777 x[5,4]
   + 0.1751673990374556 x[5,5] >= 0
 findWorstP[5,2]: z - 0.0392341494036409 cashProportion[2]
   + 0.0392341494036409 cashProportion[5] - 0.2367650136011718 x[2,1]
   - 0.0817378112575853 x[2,2] - 0.2324231010671689 x[2,3]
   - 0.2346725256329777 x[2,4] - 0.1751673990374556 x[2,5]
   + 0.2367650136011718 x[5,1] + 0.0817378112575853 x[5,2]
   + 0.2324231010671689 x[5,3] + 0.2346725256329777 x[5,4]
   + 0.1751673990374556 x[5,5] >= 0
 findWorstP[5,3]: z - 0.0392341494036409 cashProportion[3]
   + 0.0392341494036409 cashProportion[5] - 0.2367650136011718 x[3,1]
   - 0.0817378112575853 x[3,2] - 0.2324231010671689 x[3,3]
   - 0.2346725256329777 x[3,4] - 0.1751673990374556 x[3,5]
   + 0.2367650136011718 x[5,1] + 0.0817378112575853 x[5,2]
   + 0.2324231010671689 x[5,3] + 0.2346725256329777 x[5,4]
   + 0.1751673990374556 x[5,5] >= 0
 findWorstP[5,4]: z - 0.0392341494036409 cashProportion[4]
   + 0.0392341494036409 cashProportion[5] - 0.2367650136011718 x[4,1]
   - 0.0817378112575853 x[4,2] - 0.2324231010671689 x[4,3]
   - 0.2346725256329777 x[4,4] - 0.1751673990374556 x[4,5]
   + 0.2367650136011718 x[5,1] + 0.0817378112575853 x[5,2]
   + 0.2324231010671689 x[5,3] + 0.2346725256329777 x[5,4]
   + 0.1751673990374556 x[5,5] >= 0
Bounds
 z <= 1
 -infinity <= cashProportion[1] <= 1
 -infinity <= cashProportion[2] <= 1
 -infinity <= cashProportion[3] <= 1
 -infinity <= cashProportion[4] <= 1
 -infinity <= cashProportion[5] <= 1
Binaries
 x[1,1] x[1,2] x[1,3] x[1,4] x[1,5] x[2,1] x[2,2] x[2,3] x[2,4] x[2,5]
 x[3,1] x[3,2] x[3,3] x[3,4] x[3,5] x[4,1] x[4,2] x[4,3] x[4,4] x[4,5]
 x[5,1] x[5,2] x[5,3] x[5,4] x[5,5]
End
