data/mps_files/pEFS/85_2.mps
NAME foo
ROWS
 N  OBJ
 E  allocateEach[1]
 E  allocateEach[2]
 E  allocateEach[3]
 E  allocateEach[4]
 E  allocateEach[5]
 E  allocateAllCash
 G  findWorstP[1,2]
 G  findWorstP[1,3]
 G  findWorstP[1,4]
 G  findWorstP[1,5]
 G  findWorstP[2,1]
 G  findWorstP[2,3]
 G  findWorstP[2,4]
 G  findWorstP[2,5]
 G  findWorstP[3,1]
 G  findWorstP[3,2]
 G  findWorstP[3,4]
 G  findWorstP[3,5]
 G  findWorstP[4,1]
 G  findWorstP[4,2]
 G  findWorstP[4,3]
 G  findWorstP[4,5]
 G  findWorstP[5,1]
 G  findWorstP[5,2]
 G  findWorstP[5,3]
 G  findWorstP[5,4]
COLUMNS
    z         OBJ       1
    z         findWorstP[1,2]  1
    z         findWorstP[1,3]  1
    z         findWorstP[1,4]  1
    z         findWorstP[1,5]  1
    z         findWorstP[2,1]  1
    z         findWorstP[2,3]  1
    z         findWorstP[2,4]  1
    z         findWorstP[2,5]  1
    z         findWorstP[3,1]  1
    z         findWorstP[3,2]  1
    z         findWorstP[3,4]  1
    z         findWorstP[3,5]  1
    z         findWorstP[4,1]  1
    z         findWorstP[4,2]  1
    z         findWorstP[4,3]  1
    z         findWorstP[4,5]  1
    z         findWorstP[5,1]  1
    z         findWorstP[5,2]  1
    z         findWorstP[5,3]  1
    z         findWorstP[5,4]  1
    cashProportion[1]  allocateAllCash  1
    cashProportion[1]  findWorstP[1,2]  0.0516457788183446
    cashProportion[1]  findWorstP[1,3]  0.0516457788183446
    cashProportion[1]  findWorstP[1,4]  0.0516457788183446
    cashProportion[1]  findWorstP[1,5]  0.0516457788183446
    cashProportion[1]  findWorstP[2,1]  -5.8680854393239973e-02
    cashProportion[1]  findWorstP[3,1]  -4.5460055764335081e-02
    cashProportion[1]  findWorstP[4,1]  -4.0794125645906995e-02
    cashProportion[1]  findWorstP[5,1]  -3.9234149403640943e-02
    cashProportion[2]  allocateAllCash  1
    cashProportion[2]  findWorstP[1,2]  -0.0516457788183446
    cashProportion[2]  findWorstP[2,1]  5.8680854393239973e-02
    cashProportion[2]  findWorstP[2,3]  5.8680854393239973e-02
    cashProportion[2]  findWorstP[2,4]  5.8680854393239973e-02
    cashProportion[2]  findWorstP[2,5]  5.8680854393239973e-02
    cashProportion[2]  findWorstP[3,2]  -4.5460055764335081e-02
    cashProportion[2]  findWorstP[4,2]  -4.0794125645906995e-02
    cashProportion[2]  findWorstP[5,2]  -3.9234149403640943e-02
    cashProportion[3]  allocateAllCash  1
    cashProportion[3]  findWorstP[1,3]  -0.0516457788183446
    cashProportion[3]  findWorstP[2,3]  -5.8680854393239973e-02
    cashProportion[3]  findWorstP[3,1]  4.5460055764335081e-02
    cashProportion[3]  findWorstP[3,2]  4.5460055764335081e-02
    cashProportion[3]  findWorstP[3,4]  4.5460055764335081e-02
    cashProportion[3]  findWorstP[3,5]  4.5460055764335081e-02
    cashProportion[3]  findWorstP[4,3]  -4.0794125645906995e-02
    cashProportion[3]  findWorstP[5,3]  -3.9234149403640943e-02
    cashProportion[4]  allocateAllCash  1
    cashProportion[4]  findWorstP[1,4]  -0.0516457788183446
    cashProportion[4]  findWorstP[2,4]  -5.8680854393239973e-02
    cashProportion[4]  findWorstP[3,4]  -4.5460055764335081e-02
    cashProportion[4]  findWorstP[4,1]  4.0794125645906995e-02
    cashProportion[4]  findWorstP[4,2]  4.0794125645906995e-02
    cashProportion[4]  findWorstP[4,3]  4.0794125645906995e-02
    cashProportion[4]  findWorstP[4,5]  4.0794125645906995e-02
    cashProportion[4]  findWorstP[5,4]  -3.9234149403640943e-02
    cashProportion[5]  allocateAllCash  1
    cashProportion[5]  findWorstP[1,5]  -0.0516457788183446
    cashProportion[5]  findWorstP[2,5]  -5.8680854393239973e-02
    cashProportion[5]  findWorstP[3,5]  -4.5460055764335081e-02
    cashProportion[5]  findWorstP[4,5]  -4.0794125645906995e-02
    cashProportion[5]  findWorstP[5,1]  3.9234149403640943e-02
    cashProportion[5]  findWorstP[5,2]  3.9234149403640943e-02
    cashProportion[5]  findWorstP[5,3]  3.9234149403640943e-02
    cashProportion[5]  findWorstP[5,4]  3.9234149403640943e-02
    MARKER    'MARKER'                 'INTORG'
    x[1,1]    allocateEach[1]  1
    x[1,1]    findWorstP[1,2]  3.2419776890235508e-01
    x[1,1]    findWorstP[1,3]  3.2419776890235508e-01
    x[1,1]    findWorstP[1,4]  3.2419776890235508e-01
    x[1,1]    findWorstP[1,5]  3.2419776890235508e-01
    x[1,1]    findWorstP[2,1]  -3.6577732571786245e-02
    x[1,1]    findWorstP[3,1]  -2.2251181961449873e-01
    x[1,1]    findWorstP[4,1]  -2.2314386728311125e-01
    x[1,1]    findWorstP[5,1]  -2.3676501360117183e-01
    x[1,2]    allocateEach[2]  1
    x[1,2]    findWorstP[1,2]  5.2885277509984854e-02
    x[1,2]    findWorstP[1,3]  5.2885277509984854e-02
    x[1,2]    findWorstP[1,4]  5.2885277509984854e-02
    x[1,2]    findWorstP[1,5]  5.2885277509984854e-02
    x[1,2]    findWorstP[2,1]  -2.1308974258665203e-01
    x[1,2]    findWorstP[3,1]  -2.6466844465995876e-01
    x[1,2]    findWorstP[4,1]  -2.6638564046777269e-01
    x[1,2]    findWorstP[5,1]  -8.1737811257585280e-02
    x[1,3]    allocateEach[3]  1
    x[1,3]    findWorstP[1,2]  2.9909792039663963e-01
    x[1,3]    findWorstP[1,3]  2.9909792039663963e-01
    x[1,3]    findWorstP[1,4]  2.9909792039663963e-01
    x[1,3]    findWorstP[1,5]  2.9909792039663963e-01
    x[1,3]    findWorstP[2,1]  -3.1687661372349585e-01
    x[1,3]    findWorstP[3,1]  -1.7796096496545039e-01
    x[1,3]    findWorstP[4,1]  -2.3288006527060104e-01
    x[1,3]    findWorstP[5,1]  -2.3242310106716890e-01
    x[1,4]    allocateEach[4]  1
    x[1,4]    findWorstP[1,2]  2.5482027268971219e-01
    x[1,4]    findWorstP[1,3]  2.5482027268971219e-01
    x[1,4]    findWorstP[1,4]  2.5482027268971219e-01
    x[1,4]    findWorstP[1,5]  2.5482027268971219e-01
    x[1,4]    findWorstP[2,1]  -1.9685470620452233e-01
    x[1,4]    findWorstP[3,1]  -6.9887259061704454e-02
    x[1,4]    findWorstP[4,1]  -0.0896926842534675
    x[1,4]    findWorstP[5,1]  -2.3467252563297766e-01
    x[1,5]    allocateEach[5]  1
    x[1,5]    findWorstP[1,2]  1.7352981682963783e-02
    x[1,5]    findWorstP[1,3]  1.7352981682963783e-02
    x[1,5]    findWorstP[1,4]  1.7352981682963783e-02
    x[1,5]    findWorstP[1,5]  1.7352981682963783e-02
    x[1,5]    findWorstP[2,1]  -1.7792035052030356e-01
    x[1,5]    findWorstP[3,1]  -2.1951145593405264e-01
    x[1,5]    findWorstP[4,1]  -1.4710361707914063e-01
    x[1,5]    findWorstP[5,1]  -1.7516739903745557e-01
    x[2,1]    allocateEach[1]  1
    x[2,1]    findWorstP[1,2]  -3.2419776890235508e-01
    x[2,1]    findWorstP[2,1]  3.6577732571786245e-02
    x[2,1]    findWorstP[2,3]  3.6577732571786245e-02
    x[2,1]    findWorstP[2,4]  3.6577732571786245e-02
    x[2,1]    findWorstP[2,5]  3.6577732571786245e-02
    x[2,1]    findWorstP[3,2]  -2.2251181961449873e-01
    x[2,1]    findWorstP[4,2]  -2.2314386728311125e-01
    x[2,1]    findWorstP[5,2]  -2.3676501360117183e-01
    x[2,2]    allocateEach[2]  1
    x[2,2]    findWorstP[1,2]  -5.2885277509984854e-02
    x[2,2]    findWorstP[2,1]  2.1308974258665203e-01
    x[2,2]    findWorstP[2,3]  2.1308974258665203e-01
    x[2,2]    findWorstP[2,4]  2.1308974258665203e-01
    x[2,2]    findWorstP[2,5]  2.1308974258665203e-01
    x[2,2]    findWorstP[3,2]  -2.6466844465995876e-01
    x[2,2]    findWorstP[4,2]  -2.6638564046777269e-01
    x[2,2]    findWorstP[5,2]  -8.1737811257585280e-02
    x[2,3]    allocateEach[3]  1
    x[2,3]    findWorstP[1,2]  -2.9909792039663963e-01
    x[2,3]    findWorstP[2,1]  3.1687661372349585e-01
    x[2,3]    findWorstP[2,3]  3.1687661372349585e-01
    x[2,3]    findWorstP[2,4]  3.1687661372349585e-01
    x[2,3]    findWorstP[2,5]  3.1687661372349585e-01
    x[2,3]    findWorstP[3,2]  -1.7796096496545039e-01
    x[2,3]    findWorstP[4,2]  -2.3288006527060104e-01
    x[2,3]    findWorstP[5,2]  -2.3242310106716890e-01
    x[2,4]    allocateEach[4]  1
    x[2,4]    findWorstP[1,2]  -2.5482027268971219e-01
    x[2,4]    findWorstP[2,1]  1.9685470620452233e-01
    x[2,4]    findWorstP[2,3]  1.9685470620452233e-01
    x[2,4]    findWorstP[2,4]  1.9685470620452233e-01
    x[2,4]    findWorstP[2,5]  1.9685470620452233e-01
    x[2,4]    findWorstP[3,2]  -6.9887259061704454e-02
    x[2,4]    findWorstP[4,2]  -0.0896926842534675
    x[2,4]    findWorstP[5,2]  -2.3467252563297766e-01
    x[2,5]    allocateEach[5]  1
    x[2,5]    findWorstP[1,2]  -1.7352981682963783e-02
    x[2,5]    findWorstP[2,1]  1.7792035052030356e-01
    x[2,5]    findWorstP[2,3]  1.7792035052030356e-01
    x[2,5]    findWorstP[2,4]  1.7792035052030356e-01
    x[2,5]    findWorstP[2,5]  1.7792035052030356e-01
    x[2,5]    findWorstP[3,2]  -2.1951145593405264e-01
    x[2,5]    findWorstP[4,2]  -1.4710361707914063e-01
    x[2,5]    findWorstP[5,2]  -1.7516739903745557e-01
    x[3,1]    allocateEach[1]  1
    x[3,1]    findWorstP[1,3]  -3.2419776890235508e-01
    x[3,1]    findWorstP[2,3]  -3.6577732571786245e-02
    x[3,1]    findWorstP[3,1]  2.2251181961449873e-01
    x[3,1]    findWorstP[3,2]  2.2251181961449873e-01
    x[3,1]    findWorstP[3,4]  2.2251181961449873e-01
    x[3,1]    findWorstP[3,5]  2.2251181961449873e-01
    x[3,1]    findWorstP[4,3]  -2.2314386728311125e-01
    x[3,1]    findWorstP[5,3]  -2.3676501360117183e-01
    x[3,2]    allocateEach[2]  1
    x[3,2]    findWorstP[1,3]  -5.2885277509984854e-02
    x[3,2]    findWorstP[2,3]  -2.1308974258665203e-01
    x[3,2]    findWorstP[3,1]  2.6466844465995876e-01
    x[3,2]    findWorstP[3,2]  2.6466844465995876e-01
    x[3,2]    findWorstP[3,4]  2.6466844465995876e-01
    x[3,2]    findWorstP[3,5]  2.6466844465995876e-01
    x[3,2]    findWorstP[4,3]  -2.6638564046777269e-01
    x[3,2]    findWorstP[5,3]  -8.1737811257585280e-02
    x[3,3]    allocateEach[3]  1
    x[3,3]    findWorstP[1,3]  -2.9909792039663963e-01
    x[3,3]    findWorstP[2,3]  -3.1687661372349585e-01
    x[3,3]    findWorstP[3,1]  1.7796096496545039e-01
    x[3,3]    findWorstP[3,2]  1.7796096496545039e-01
    x[3,3]    findWorstP[3,4]  1.7796096496545039e-01
    x[3,3]    findWorstP[3,5]  1.7796096496545039e-01
    x[3,3]    findWorstP[4,3]  -2.3288006527060104e-01
    x[3,3]    findWorstP[5,3]  -2.3242310106716890e-01
    x[3,4]    allocateEach[4]  1
    x[3,4]    findWorstP[1,3]  -2.5482027268971219e-01
    x[3,4]    findWorstP[2,3]  -1.9685470620452233e-01
    x[3,4]    findWorstP[3,1]  6.9887259061704454e-02
    x[3,4]    findWorstP[3,2]  6.9887259061704454e-02
    x[3,4]    findWorstP[3,4]  6.9887259061704454e-02
    x[3,4]    findWorstP[3,5]  6.9887259061704454e-02
    x[3,4]    findWorstP[4,3]  -0.0896926842534675
    x[3,4]    findWorstP[5,3]  -2.3467252563297766e-01
    x[3,5]    allocateEach[5]  1
    x[3,5]    findWorstP[1,3]  -1.7352981682963783e-02
    x[3,5]    findWorstP[2,3]  -1.7792035052030356e-01
    x[3,5]    findWorstP[3,1]  2.1951145593405264e-01
    x[3,5]    findWorstP[3,2]  2.1951145593405264e-01
    x[3,5]    findWorstP[3,4]  2.1951145593405264e-01
    x[3,5]    findWorstP[3,5]  2.1951145593405264e-01
    x[3,5]    findWorstP[4,3]  -1.4710361707914063e-01
    x[3,5]    findWorstP[5,3]  -1.7516739903745557e-01
    x[4,1]    allocateEach[1]  1
    x[4,1]    findWorstP[1,4]  -3.2419776890235508e-01
    x[4,1]    findWorstP[2,4]  -3.6577732571786245e-02
    x[4,1]    findWorstP[3,4]  -2.2251181961449873e-01
    x[4,1]    findWorstP[4,1]  2.2314386728311125e-01
    x[4,1]    findWorstP[4,2]  2.2314386728311125e-01
    x[4,1]    findWorstP[4,3]  2.2314386728311125e-01
    x[4,1]    findWorstP[4,5]  2.2314386728311125e-01
    x[4,1]    findWorstP[5,4]  -2.3676501360117183e-01
    x[4,2]    allocateEach[2]  1
    x[4,2]    findWorstP[1,4]  -5.2885277509984854e-02
    x[4,2]    findWorstP[2,4]  -2.1308974258665203e-01
    x[4,2]    findWorstP[3,4]  -2.6466844465995876e-01
    x[4,2]    findWorstP[4,1]  2.6638564046777269e-01
    x[4,2]    findWorstP[4,2]  2.6638564046777269e-01
    x[4,2]    findWorstP[4,3]  2.6638564046777269e-01
    x[4,2]    findWorstP[4,5]  2.6638564046777269e-01
    x[4,2]    findWorstP[5,4]  -8.1737811257585280e-02
    x[4,3]    allocateEach[3]  1
    x[4,3]    findWorstP[1,4]  -2.9909792039663963e-01
    x[4,3]    findWorstP[2,4]  -3.1687661372349585e-01
    x[4,3]    findWorstP[3,4]  -1.7796096496545039e-01
    x[4,3]    findWorstP[4,1]  2.3288006527060104e-01
    x[4,3]    findWorstP[4,2]  2.3288006527060104e-01
    x[4,3]    findWorstP[4,3]  2.3288006527060104e-01
    x[4,3]    findWorstP[4,5]  2.3288006527060104e-01
    x[4,3]    findWorstP[5,4]  -2.3242310106716890e-01
    x[4,4]    allocateEach[4]  1
    x[4,4]    findWorstP[1,4]  -2.5482027268971219e-01
    x[4,4]    findWorstP[2,4]  -1.9685470620452233e-01
    x[4,4]    findWorstP[3,4]  -6.9887259061704454e-02
    x[4,4]    findWorstP[4,1]  0.0896926842534675
    x[4,4]    findWorstP[4,2]  0.0896926842534675
    x[4,4]    findWorstP[4,3]  0.0896926842534675
    x[4,4]    findWorstP[4,5]  0.0896926842534675
    x[4,4]    findWorstP[5,4]  -2.3467252563297766e-01
    x[4,5]    allocateEach[5]  1
    x[4,5]    findWorstP[1,4]  -1.7352981682963783e-02
    x[4,5]    findWorstP[2,4]  -1.7792035052030356e-01
    x[4,5]    findWorstP[3,4]  -2.1951145593405264e-01
    x[4,5]    findWorstP[4,1]  1.4710361707914063e-01
    x[4,5]    findWorstP[4,2]  1.4710361707914063e-01
    x[4,5]    findWorstP[4,3]  1.4710361707914063e-01
    x[4,5]    findWorstP[4,5]  1.4710361707914063e-01
    x[4,5]    findWorstP[5,4]  -1.7516739903745557e-01
    x[5,1]    allocateEach[1]  1
    x[5,1]    findWorstP[1,5]  -3.2419776890235508e-01
    x[5,1]    findWorstP[2,5]  -3.6577732571786245e-02
    x[5,1]    findWorstP[3,5]  -2.2251181961449873e-01
    x[5,1]    findWorstP[4,5]  -2.2314386728311125e-01
    x[5,1]    findWorstP[5,1]  2.3676501360117183e-01
    x[5,1]    findWorstP[5,2]  2.3676501360117183e-01
    x[5,1]    findWorstP[5,3]  2.3676501360117183e-01
    x[5,1]    findWorstP[5,4]  2.3676501360117183e-01
    x[5,2]    allocateEach[2]  1
    x[5,2]    findWorstP[1,5]  -5.2885277509984854e-02
    x[5,2]    findWorstP[2,5]  -2.1308974258665203e-01
    x[5,2]    findWorstP[3,5]  -2.6466844465995876e-01
    x[5,2]    findWorstP[4,5]  -2.6638564046777269e-01
    x[5,2]    findWorstP[5,1]  8.1737811257585280e-02
    x[5,2]    findWorstP[5,2]  8.1737811257585280e-02
    x[5,2]    findWorstP[5,3]  8.1737811257585280e-02
    x[5,2]    findWorstP[5,4]  8.1737811257585280e-02
    x[5,3]    allocateEach[3]  1
    x[5,3]    findWorstP[1,5]  -2.9909792039663963e-01
    x[5,3]    findWorstP[2,5]  -3.1687661372349585e-01
    x[5,3]    findWorstP[3,5]  -1.7796096496545039e-01
    x[5,3]    findWorstP[4,5]  -2.3288006527060104e-01
    x[5,3]    findWorstP[5,1]  2.3242310106716890e-01
    x[5,3]    findWorstP[5,2]  2.3242310106716890e-01
    x[5,3]    findWorstP[5,3]  2.3242310106716890e-01
    x[5,3]    findWorstP[5,4]  2.3242310106716890e-01
    x[5,4]    allocateEach[4]  1
    x[5,4]    findWorstP[1,5]  -2.5482027268971219e-01
    x[5,4]    findWorstP[2,5]  -1.9685470620452233e-01
    x[5,4]    findWorstP[3,5]  -6.9887259061704454e-02
    x[5,4]    findWorstP[4,5]  -0.0896926842534675
    x[5,4]    findWorstP[5,1]  2.3467252563297766e-01
    x[5,4]    findWorstP[5,2]  2.3467252563297766e-01
    x[5,4]    findWorstP[5,3]  2.3467252563297766e-01
    x[5,4]    findWorstP[5,4]  2.3467252563297766e-01
    x[5,5]    allocateEach[5]  1
    x[5,5]    findWorstP[1,5]  -1.7352981682963783e-02
    x[5,5]    findWorstP[2,5]  -1.7792035052030356e-01
    x[5,5]    findWorstP[3,5]  -2.1951145593405264e-01
    x[5,5]    findWorstP[4,5]  -1.4710361707914063e-01
    x[5,5]    findWorstP[5,1]  1.7516739903745557e-01
    x[5,5]    findWorstP[5,2]  1.7516739903745557e-01
    x[5,5]    findWorstP[5,3]  1.7516739903745557e-01
    x[5,5]    findWorstP[5,4]  1.7516739903745557e-01
    MARKER    'MARKER'                 'INTEND'
RHS
    RHS1      allocateEach[1]  1
    RHS1      allocateEach[2]  1
    RHS1      allocateEach[3]  1
    RHS1      allocateEach[4]  1
    RHS1      allocateEach[5]  1
    RHS1      allocateAllCash  1
BOUNDS
 UP BND1      z         1
 MI BND1      cashProportion[1]
 UP BND1      cashProportion[1]  1
 MI BND1      cashProportion[2]
 UP BND1      cashProportion[2]  1
 MI BND1      cashProportion[3]
 UP BND1      cashProportion[3]  1
 MI BND1      cashProportion[4]
 UP BND1      cashProportion[4]  1
 MI BND1      cashProportion[5]
 UP BND1      cashProportion[5]  1
 BV BND1      x[1,1]  
 BV BND1      x[1,2]  
 BV BND1      x[1,3]  
 BV BND1      x[1,4]  
 BV BND1      x[1,5]  
 BV BND1      x[2,1]  
 BV BND1      x[2,2]  
 BV BND1      x[2,3]  
 BV BND1      x[2,4]  
 BV BND1      x[2,5]  
 BV BND1      x[3,1]  
 BV BND1      x[3,2]  
 BV BND1      x[3,3]  
 BV BND1      x[3,4]  
 BV BND1      x[3,5]  
 BV BND1      x[4,1]  
 BV BND1      x[4,2]  
 BV BND1      x[4,3]  
 BV BND1      x[4,4]  
 BV BND1      x[4,5]  
 BV BND1      x[5,1]  
 BV BND1      x[5,2]  
 BV BND1      x[5,3]  
 BV BND1      x[5,4]  
 BV BND1      x[5,5]  
ENDATA
